# Solution for model PDMTZ_aux
# Objective value = 5.2541851015589384e+02
ugi[8,101] 0
ugi[8,102] 0
ugi[8,103] 1
ugi[8,104] 0
ugi[8,105] 0
ugi[8,203] 0
ugi[8,304] 0
ugi[8,305] 0
dgLi[8,101] 4.4240412706965566e+00
dgLi[8,102] 4.4240412706965566e+00
dgLi[8,103] 1.5932126220968241e+00
dgLi[8,104] 4.4240412706965566e+00
dgLi[8,105] 4.4240412706965566e+00
dgLi[8,203] 4.4240412706965566e+00
dgLi[8,304] 4.4240412706965566e+00
dgLi[8,305] 5.3763718683804944e+00
difgLi[8,101,0] 2.4160977658065175e+00
difgLi[8,101,1] 3.70602443859123
difgLi[8,102,0] 2.4160977658063132e+00
difgLi[8,102,1] 3.7060244385912284e+00
difgLi[8,103,0] 5.1345987525526482e-01
difgLi[8,103,1] 1.50820735122457
difgLi[8,104,0] 5.1345987525530745e-01
difgLi[8,104,1] 4.15273501741359
difgLi[8,105,0] 2.4160977658063132e+00
difgLi[8,105,1] 3.7060244385912284e+00
difgLi[8,203,0] 2.9736904488991374e+00
difgLi[8,203,1] 3.2755625693116213e+00
difgLi[8,304,0] 3.2450058988919750e-01
difgLi[8,304,1] 4.3494754514572662e+00
difgLi[8,305,0] 1.1918667201852031e+00
difgLi[8,305,1] 5.2425984998460651e+00
pgLi[8,101] 0
pgLi[8,102] 0
pgLi[8,103] 1.5932126220968241e+00
pgLi[8,104] 0
pgLi[8,105] 0
pgLi[8,203] 0
pgLi[8,304] 0
pgLi[8,305] 9.5233059768393780e-01
vgi[8,101] 0
vgi[8,102] 0
vgi[8,103] 0
vgi[8,104] 0
vgi[8,105] 0
vgi[8,203] 1
vgi[8,304] 0
vgi[8,305] 0
dgRi[8,101] 4.5562275391300240e+00
dgRi[8,102] 4.4240412706965566e+00
dgRi[8,103] 4.4240412706965566e+00
dgRi[8,104] 4.4240412706965566e+00
dgRi[8,105] 4.4240412706965566e+00
dgRi[8,203] 1.6020798665579732e+00
dgRi[8,304] 4.4240412706965566e+00
dgRi[8,305] 5.3883574274215480e+00
difgRi[8,101,0] 2.6021902045516154e+00
difgRi[8,101,1] 3.7400289783321621e+00
difgRi[8,102,0] 2.3867165797813752e+00
difgRi[8,102,1] 3.7250136930319395e+00
difgRi[8,103,0] 2.3867165797813752e+00
difgRi[8,103,1] 3.7250136930319395e+00
difgRi[8,104,0] 3.5388177591410674e-01
difgRi[8,104,1] 4.3684647058979769e+00
difgRi[8,105,0] 2.3867165797813867e+00
difgRi[8,105,1] 3.7250136930319391e+00
difgRi[8,203,0] 4.8407868923034003e-01
difgRi[8,203,1] 1.5271966056652795e+00
difgRi[8,304,0] 3.5388177591413517e-01
difgRi[8,304,1] 4.3684647058979769e+00
difgRi[8,305,0] 1.1945237515974454e+00
difgRi[8,305,1] 5.2542858375875783e+00
pgRi[8,101] 1.3218626843346806e-01
pgRi[8,102] 0
pgRi[8,103] 0
pgRi[8,104] 0
pgRi[8,105] 0
pgRi[8,203] 1.6020798665579732e+00
pgRi[8,304] 0
pgRi[8,305] 9.6431615672499116e-01
zgij[8,101,102] 0
zgij[8,101,103] 0
zgij[8,101,104] 0
zgij[8,101,105] 0
zgij[8,101,203] 1
zgij[8,101,304] 0
zgij[8,101,305] 0
zgij[8,102,101] 1
zgij[8,102,103] 0
zgij[8,102,104] 0
zgij[8,102,105] 0
zgij[8,102,203] 0
zgij[8,102,304] 0
zgij[8,102,305] 0
zgij[8,103,101] 0
zgij[8,103,102] 0
zgij[8,103,104] 0
zgij[8,103,105] 1
zgij[8,103,203] 0
zgij[8,103,304] 0
zgij[8,103,305] 0
zgij[8,104,101] 0
zgij[8,104,102] 0
zgij[8,104,103] 0
zgij[8,104,105] 0
zgij[8,104,203] 0
zgij[8,104,304] 0
zgij[8,104,305] 0
zgij[8,105,101] 0
zgij[8,105,102] 1
zgij[8,105,103] 0
zgij[8,105,104] 0
zgij[8,105,203] 0
zgij[8,105,304] 0
zgij[8,105,305] 0
zgij[8,203,101] 0
zgij[8,203,102] 0
zgij[8,203,103] 0
zgij[8,203,104] 0
zgij[8,203,105] 0
zgij[8,203,304] 0
zgij[8,203,305] 0
zgij[8,304,101] 0
zgij[8,304,102] 0
zgij[8,304,103] 0
zgij[8,304,104] 0
zgij[8,304,105] 0
zgij[8,304,203] 0
zgij[8,304,305] 0
zgij[8,305,101] 0
zgij[8,305,102] 0
zgij[8,305,103] 0
zgij[8,305,104] 0
zgij[8,305,105] 0
zgij[8,305,203] 0
zgij[8,305,304] 0
sgi[8,101] 6
sgi[8,102] 5
sgi[8,103] 3
sgi[8,104] 7.0000000000000009e+00
sgi[8,105] 4
sgi[8,203] 7
sgi[8,304] 7
sgi[8,305] 7
dgij[8,101,102] 2.1599616145733702e-01
dgij[8,101,103] 3.9200590471001528e+00
dgij[8,101,104] 4.0596850281034307e+00
dgij[8,101,105] 2.1599616145733702e-01
dgij[8,101,203] 5.6168938778524191e-01
dgij[8,101,304] 3.0221338386883190e+00
dgij[8,101,305] 2.0947288300713889e+00
dgij[8,102,101] 0
dgij[8,102,103] 3.9681479444792491e+00
dgij[8,102,104] 2.8173650131425636e+00
dgij[8,102,105] 0
dgij[8,102,203] 7.0441910033524424e-01
dgij[8,102,304] 2.8173650131425636e+00
dgij[8,102,305] 3.4490518661917662e+00
dgij[8,103,101] 0
dgij[8,103,102] 0
dgij[8,103,104] 2.9622596372608929e+00
dgij[8,103,105] 0
dgij[8,103,203] 3.9200590471001528e+00
dgij[8,103,304] 3.9681479444792491e+00
dgij[8,103,305] 4.4240412706965566e+00
dgij[8,104,101] 4.0596850281034307e+00
dgij[8,104,102] 2.8173650131425636e+00
dgij[8,104,103] 2.9622596372608929e+00
dgij[8,104,105] 3.9183213273994233e+00
dgij[8,104,203] 3.4686240030308304e+00
dgij[8,104,304] 2.8173650131425636e+00
dgij[8,104,305] 1.7598400095046705e+00
dgij[8,105,101] 0
dgij[8,105,102] 0
dgij[8,105,103] 4.4240412706965566e+00
dgij[8,105,104] 3.9183213273994233e+00
dgij[8,105,203] 7.0441910033524413e-01
dgij[8,105,304] 2.8151214100282189e+00
dgij[8,105,305] 3.4490518661917662e+00
dgij[8,203,101] 3.9200590471001528e+00
dgij[8,203,102] 2.9069624854960465e+00
dgij[8,203,103] 3.9200590471001528e+00
dgij[8,203,104] 2.6445276661890205e+00
dgij[8,203,105] 2.9069624854960465e+00
dgij[8,203,304] 4.0596850281034307e+00
dgij[8,203,305] 3.7955117384089632e+00
dgij[8,304,101] 2.8151214100283779e+00
dgij[8,304,102] 2.8173650131425636e+00
dgij[8,304,103] 3.9681479444792491e+00
dgij[8,304,104] 2.8173650131425636e+00
dgij[8,304,105] 2.8151214100282185e+00
dgij[8,304,203] 4.0596850281034307e+00
dgij[8,304,305] 3.9183213273994233e+00
dgij[8,305,101] 1.93907114194937
dgij[8,305,102] 3.4490518661917662e+00
dgij[8,305,103] 3.7941961824320320e+00
dgij[8,305,104] 1.2948630322683086e+00
dgij[8,305,105] 3.4490518661917662e+00
dgij[8,305,203] 4.4240412706965566e+00
dgij[8,305,304] 3.9183213273994233e+00
dgij[8,101,102,0] 2.1547362477031129e-01
dgij[8,101,102,1] 1.5015285300222558e-02
dgij[8,101,103,0] 2.1181115153212886e+00
dgij[8,101,103,1] 2.2128323726668810e+00
dgij[8,101,104,0] 4.0366671554069340e+00
dgij[8,101,104,1] 4.3169529352213942e-01
dgij[8,101,105,0] 2.1547362477031129e-01
dgij[8,101,105,1] 1.5015285300222558e-02
dgij[8,101,203,0] 3.4211905832239609e-01
dgij[8,101,203,1] 4.4547715457984793e-01
dgij[8,101,304,0] 2.9560719804658220e+00
dgij[8,101,304,1] 6.2843572756581523e-01
dgij[8,101,305,0] 1.4397046703913929e+00
dgij[8,101,305,1] 1.5215587759546167e+00
dgij[8,102,101,0] 0
dgij[8,102,101,1] 0
dgij[8,102,103,0] 1.9026378905510484e+00
dgij[8,102,103,1] 2.1978170873666585e+00
dgij[8,102,104,0] 1.9026378905509773e+00
dgij[8,102,104,1] 0.446710578822362
dgij[8,102,105,0] 0
dgij[8,102,105,1] 0
dgij[8,102,203,0] 5.5759268309282106e-01
dgij[8,102,203,1] 4.3046186927962538e-01
dgij[8,102,304,0] 2.7405983556955107e+00
dgij[8,102,304,1] 6.4345101286603779e-01
dgij[8,102,305,0] 1.2242310456210816e+00
dgij[8,102,305,1] 1.5365740612548393e+00
dgij[8,103,101,0] 0
dgij[8,103,101,1] 0
dgij[8,103,102,0] 0
dgij[8,103,102,1] 0
dgij[8,103,104,0] 1.9026378905509773e+00
dgij[8,103,104,1] 0.446710578822362
dgij[8,103,105,0] 0
dgij[8,103,105,1] 0
dgij[8,103,203,0] 5.5759268309282106e-01
dgij[8,103,203,1] 4.3046186927962538e-01
dgij[8,103,304,0] 2.7405983556955107e+00
dgij[8,103,304,1] 2.8697258212014041e+00
dgij[8,103,305,0] 1.2242310456210816e+00
dgij[8,103,305,1] 4.2512825719519558e+00
dgij[8,104,101,0] 2.7405983556956812e+00
dgij[8,104,101,1] 6.4345101286603779e-01
dgij[8,104,102,0] 2.7405983556954538e+00
dgij[8,104,102,1] 6.4345101286603779e-01
dgij[8,104,103,0] 8.3796046514441969e-01
dgij[8,104,103,1] 2.8412681002326963e+00
dgij[8,104,105,0] 2.7405983556954823e+00
dgij[8,104,105,1] 6.4345101286603779e-01
dgij[8,104,203,0] 3.2981910387883033e+00
dgij[8,104,203,1] 1.0739128821456632e+00
dgij[8,104,304,0] 2.8173650131425636e+00
dgij[8,104,304,1] 0
dgij[8,104,305,0] 1.5163673100743722e+00
dgij[8,104,305,1] 8.9312304838880152e-01
dgij[8,105,101,0] 0
dgij[8,105,101,1] 0
dgij[8,105,102,0] 0
dgij[8,105,102,1] 0
dgij[8,105,103,0] 1.9026378905510484e+00
dgij[8,105,103,1] 2.1978170873666585e+00
dgij[8,105,104,0] 3.8927742958839824e+00
dgij[8,105,104,1] 0.446710578822362
dgij[8,105,203,0] 5.5759268309282106e-01
dgij[8,105,203,1] 4.3046186927962538e-01
dgij[8,105,304,0] 2.7405983556955107e+00
dgij[8,105,304,1] 6.4345101286603779e-01
dgij[8,105,305,0] 1.2242310456210816e+00
dgij[8,105,305,1] 1.5365740612548393e+00
dgij[8,203,101,0] 1.9026378905513468e+00
dgij[8,203,101,1] 2.1978170873666585e+00
dgij[8,203,102,0] 1.9026378905510342e+00
dgij[8,203,102,1] 2.1978170873666585e+00
dgij[8,203,103,0] 3.9200590471001528e+00
dgij[8,203,103,1] 0
dgij[8,203,104,0] 0
dgij[8,203,104,1] 2.6445276661890205e+00
dgij[8,203,105,0] 1.9026378905510342e+00
dgij[8,203,105,1] 2.1978170873666585e+00
dgij[8,203,304,0] 8.3796046514447653e-01
dgij[8,203,304,1] 3.9722622835362476e+00
dgij[8,203,305,0] 6.7840684492989567e-01
dgij[8,203,305,1] 3.7343911486214978e+00
dgij[8,304,101,0] 2.7405983556956741e+00
dgij[8,304,101,1] 6.4345101286603779e-01
dgij[8,304,102,0] 2.7405983556955036e+00
dgij[8,304,102,1] 6.4345101286603779e-01
dgij[8,304,103,0] 8.3796046514446232e-01
dgij[8,304,103,1] 3.8786621879378513e+00
dgij[8,304,104,0] 8.3796046514453337e-01
dgij[8,304,104,1] 1.9674043404367580e-01
dgij[8,304,105,0] 2.7405983556955107e+00
dgij[8,304,105,1] 6.4345101286603779e-01
dgij[8,304,203,0] 3.2981910387883318e+00
dgij[8,304,203,1] 2.3670615761621021e+00
dgij[8,304,305,0] 3.8151767147120541e+00
dgij[8,304,305,1] 8.9312304838880152e-01
dgij[8,305,101,0] 1.1921928281841432e+00
dgij[8,305,101,1] 1.5292721445556388e+00
dgij[8,305,102,0] 1.1921928281839158e+00
dgij[8,305,102,1] 1.5292721445556388e+00
dgij[8,305,103,0] 7.1044506236711835e-01
dgij[8,305,103,1] 3.7270892319222977e+00
dgij[8,305,104,0] 7.1044506236706151e-01
dgij[8,305,104,1] 1.0825615657332768e+00
dgij[8,305,105,0] 1.1921928281838874e+00
dgij[8,305,105,1] 1.5292721445556388e+00
dgij[8,305,203,0] 1.7497855112767369e+00
dgij[8,305,203,1] 4.06329848879971
dgij[8,305,304,0] 1.5484055275115949e+00
dgij[8,305,304,1] 8.8582113168960119e-01
pgij[8,101,102] 0
pgij[8,101,103] 0
pgij[8,101,104] 0
pgij[8,101,105] 0
pgij[8,101,203] 5.6168938778524191e-01
pgij[8,101,304] 0
pgij[8,101,305] 0
pgij[8,102,101] 0
pgij[8,102,103] 0
pgij[8,102,104] 0
pgij[8,102,105] 0
pgij[8,102,203] 0
pgij[8,102,304] 0
pgij[8,102,305] 0
pgij[8,103,101] 0
pgij[8,103,102] 0
pgij[8,103,104] 0
pgij[8,103,105] 0
pgij[8,103,203] 0
pgij[8,103,304] 0
pgij[8,103,305] 0
pgij[8,104,101] 0
pgij[8,104,102] 0
pgij[8,104,103] 0
pgij[8,104,105] 0
pgij[8,104,203] 0
pgij[8,104,304] 0
pgij[8,104,305] 0
pgij[8,105,101] 0
pgij[8,105,102] 0
pgij[8,105,103] 0
pgij[8,105,104] 0
pgij[8,105,203] 0
pgij[8,105,304] 0
pgij[8,105,305] 0
pgij[8,203,101] 0
pgij[8,203,102] 0
pgij[8,203,103] 0
pgij[8,203,104] 0
pgij[8,203,105] 0
pgij[8,203,304] 0
pgij[8,203,305] 0
pgij[8,304,101] 0
pgij[8,304,102] 0
pgij[8,304,103] 0
pgij[8,304,104] 0
pgij[8,304,105] 0
pgij[8,304,203] 0
pgij[8,304,305] 0
pgij[8,305,101] 0
pgij[8,305,102] 0
pgij[8,305,103] 0
pgij[8,305,104] 0
pgij[8,305,105] 0
pgij[8,305,203] 0
pgij[8,305,304] 0
dLR[8] 3.9860036331655611e+00
difLR[8,0] 2.9381186024937649e-02
difLR[8,1] 1.8989254440711013e-02
dRL[0,8] 4.1795219375839253e+01
dRL[0,21] 0
dRL[8,0] 4.1788528683644167e+01
dRL[8,21] 4.1788528683644167e+01
dRL[21,0] 0
dRL[21,8] 4.1795219375839253e+01
difRL[0,8,0] 1.5538773329060973e+01
difRL[0,8,1] 3.8799315589685335e+01
difRL[0,21,0] 0
difRL[0,21,1] 0
difRL[8,0,0] 1.5568154515085912e+01
difRL[8,0,1] 3.8780326335244624e+01
difRL[8,21,0] 1.5568154515085912e+01
difRL[8,21,1] 3.8780326335244624e+01
difRL[21,0,0] 0
difRL[21,0,1] 0
difRL[21,8,0] 1.5538773329060973e+01
difRL[21,8,1] 3.8799315589685335e+01
xL[0,0] 50
xL[0,1] 50
xL[8,0] 6.5538773329060973e+01
xL[8,1] 8.8799315589685335e+01
xL[21,0] 50
xL[21,1] 50
xR[0,0] 50
xR[0,1] 50
xR[8,0] 6.5568154515085908e+01
xR[8,1] 8.8780326335244624e+01
xR[21,0] 50
xR[21,1] 50
Rgi[8,101,0] 6.7954871094867485e+01
Rgi[8,101,1] 9.2505340028276564e+01
Rgi[8,102,0] 6.7954871094867286e+01
Rgi[8,102,1] 9.2505340028276564e+01
Rgi[8,103,0] 6.6052233204316238e+01
Rgi[8,103,1] 90.3075229409099
Rgi[8,104,0] 6.6052233204316281e+01
Rgi[8,104,1] 9.2952050607098926e+01
Rgi[8,105,0] 6.7954871094867286e+01
Rgi[8,105,1] 9.2505340028276564e+01
Rgi[8,203,0] 6.8512463777960107e+01
Rgi[8,203,1] 9.2074878158996938e+01
Rgi[8,304,0] 6.5214272739171776e+01
Rgi[8,304,1] 93.1487910411426
Rgi[8,305,0] 6.6730640049246176e+01
Rgi[8,305,1] 94.0419140895314
rhogi[8,101] 9.9999999999977263e-01
rhogi[8,102] 1
rhogi[8,103] 0
rhogi[8,104] 3.0575821641397738e-01
rhogi[8,105] 1
rhogi[8,203] 7.7275299092799088e-01
rhogi[8,304] 0
rhogi[8,305] 7.0963070524217642e-01
Lgi[8,101,0] 6.8170344719637569e+01
Lgi[8,101,1] 9.2520355313576786e+01
Lgi[8,102,0] 6.7954871094867286e+01
Lgi[8,102,1] 9.2505340028276564e+01
Lgi[8,103,0] 6.7954871094867286e+01
Lgi[8,103,1] 9.2505340028276564e+01
Lgi[8,104,0] 65.2142727391718
Lgi[8,104,1] 93.1487910411426
Lgi[8,105,0] 6.7954871094867286e+01
Lgi[8,105,1] 9.2505340028276564e+01
Lgi[8,203,0] 6.6052233204316252e+01
Lgi[8,203,1] 90.3075229409099
Lgi[8,304,0] 6.5214272739171776e+01
Lgi[8,304,1] 93.1487910411426
Lgi[8,305,0] 6.6762678266683338e+01
Lgi[8,305,1] 9.4034612172832212e+01
landagi[8,101] 8.3180366519172821e-01
landagi[8,102] 1
landagi[8,103] 1
landagi[8,104] 2.8421709430404007e-14
landagi[8,105] 1
landagi[8,203] 0
landagi[8,304] 0
landagi[8,305] 0.70010351207182
mingi[8,101] 0
mingi[8,102] 0
mingi[8,103] 9.9999999999999967e-01
mingi[8,104] 0
mingi[8,105] 0
mingi[8,203] 0
mingi[8,304] 0
mingi[8,305] 0
maxgi[8,101] 1.6819633480813054e-01
maxgi[8,102] 0
maxgi[8,103] 0
maxgi[8,104] 3.0575821641394896e-01
maxgi[8,105] 0
maxgi[8,203] 0.772752990927984
maxgi[8,304] 0
maxgi[8,305] 9.5271931703772746e-03
entrygi[8,101] 0
entrygi[8,102] 0
entrygi[8,103] 1
entrygi[8,104] 0
entrygi[8,105] 1
entrygi[8,203] 0
entrygi[8,304] 1
entrygi[8,305] 0
mugi[8,101] 1
mugi[8,102] 1
mugi[8,103] 1
mugi[8,104] 0
mugi[8,105] 1
mugi[8,203] 1
mugi[8,304] 0
mugi[8,305] 0
pgi[8,101] 1.6819633480813054e-01
pgi[8,102] 0
pgi[8,103] 9.9999999999999967e-01
pgi[8,104] 0
pgi[8,105] 0
pgi[8,203] 7.7275299092797722e-01
pgi[8,304] 0
pgi[8,305] 0
alphagi[8,101] 1.6819633480813054e-01
alphagi[8,102] 0
alphagi[8,103] 9.9999999999999967e-01
alphagi[8,104] 3.0575821641394896e-01
alphagi[8,105] 0
alphagi[8,203] 7.7275299092797722e-01
alphagi[8,304] 0
alphagi[8,305] 9.5271931703772746e-03
